p wcnf 140 184
99 0
115 0
111 0
-74 0
-2 0
-20 0
-8 0
-11 0
72 0
96 0
-120 0
-33 0
-14 0
-34 0
-123 0
-55 0
-22 0
-136 0
-46 0
-9 0
-10 0
-140 0
-51 0
-26 0
-90 0
-59 0
-43 0
-56 0
-97 0
-131 0
-3 0
-62 0
-48 0
-124 0
-27 0
-63 0
-58 0
-93 0
-88 0
-57 0
-65 0
-53 0
-117 0
-32 0
71 0
91 0
105 0
-127 0
-42 0
-68 0
-28 0
-67 0
-116 0
-38 0
-4 0
-6 0
-70 0
-104 0
66 0
-125 0
-81 0
-75 0
78 0
85 0
119 0
126 0
135 0
-102 0
-52 0
-35 0
24 0
77 0
139 0
-130 60 40 23 64 0
5 -83 31 19 0
7 -92 40 15 0
31 -108 12 37 0
30 -112 45 47 0
61 49 40 -114 0
29 5 -137 44 0
60 7 -80 29 0
-100 40 16 39 0
13 12 -103 37 0
-95 30 36 0
36 16 -106 0
49 7 -107 0
25 21 -118 0
-113 30 7 0
23 15 16 0
47 15 -110 0
61 -128 40 0
15 7 -129 0
-132 54 47 0
54 -133 36 0
15 49 -134 0
7 -89 12 0
54 49 -73 0
-76 60 50 0
-87 44 45 0
-86 5 7 0
114 -40 0
82 -31 0
80 -60 0
122 -5 0
129 -15 0
-21 118 0
80 -29 0
-25 118 0
80 -7 0
121 -12 0
114 -61 0
114 -49 0
73 -54 0
83 -5 0
138 -50 0
73 -49 0
137 -44 0
-19 83 0
112 -47 0
112 -30 0
112 -45 0
133 -54 0
133 -36 0
-50 76 0
76 -60 0
134 -15 0
134 -49 0
132 -47 0
137 -5 0
-54 132 0
137 -29 0
-60 130 0
-23 130 0
130 -40 0
-64 130 0
79 -69 0
129 -7 0
86 -7 0
-37 103 0
-12 103 0
128 -40 0
-61 128 0
89 -7 0
95 -30 0
95 -36 0
89 -12 0
94 -45 0
92 -40 0
92 -15 0
92 -7 0
-30 113 0
113 -7 0
15 12 0
-122 5 0
-138 50 0
-82 31 0
-79 69 0
-84 29 0
-94 45 0
-98 1 0
-101 7 0
-121 12 0
-109 45 0
83 -31 0
-47 110 0
110 -15 0
109 -45 0
84 -29 0
-37 108 0
-31 108 0
-12 108 0
107 -7 0
-49 107 0
-5 86 0
-36 106 0
106 -16 0
-13 103 0
101 -7 0
-45 87 0
-39 100 0
-40 100 0
-16 100 0
-44 87 0
-1 98 0
w 1 0.2
w -1 0.8
w 2 0.2
w -2 0.8
w 3 0.2
w -3 0.8
w 4 0.2
w -4 0.8
w 5 0.2
w -5 0.8
w 6 0.2
w -6 0.8
w 7 0.2
w -7 0.8
w 8 0.2
w -8 0.8
w 9 0.2
w -9 0.8
w 10 0.2
w -10 0.8
w 11 0.2
w -11 0.8
w 12 0.2
w -12 0.8
w 13 0.2
w -13 0.8
w 14 0.2
w -14 0.8
w 15 0.2
w -15 0.8
w 16 0.2
w -16 0.8
w 17 0.2
w -17 0.8
w 18 0.2
w -18 0.8
w 19 0.2
w -19 0.8
w 20 0.2
w -20 0.8
w 21 0.2
w -21 0.8
w 22 0.2
w -22 0.8
w 23 0.2
w -23 0.8
w 24 0.2
w -24 0.8
w 25 0.2
w -25 0.8
w 26 0.2
w -26 0.8
w 27 0.2
w -27 0.8
w 28 0.2
w -28 0.8
w 29 0.2
w -29 0.8
w 30 0.2
w -30 0.8
w 31 0.2
w -31 0.8
w 32 0.2
w -32 0.8
w 33 0.2
w -33 0.8
w 34 0.2
w -34 0.8
w 35 0.2
w -35 0.8
w 36 0.2
w -36 0.8
w 37 0.2
w -37 0.8
w 38 0.2
w -38 0.8
w 39 0.2
w -39 0.8
w 40 0.2
w -40 0.8
w 41 0.2
w -41 0.8
w 42 0.2
w -42 0.8
w 43 0.2
w -43 0.8
w 44 0.2
w -44 0.8
w 45 0.2
w -45 0.8
w 46 0.2
w -46 0.8
w 47 0.2
w -47 0.8
w 48 0.2
w -48 0.8
w 49 0.2
w -49 0.8
w 50 0.2
w -50 0.8
w 51 0.2
w -51 0.8
w 52 0.2
w -52 0.8
w 53 0.2
w -53 0.8
w 54 0.2
w -54 0.8
w 55 0.2
w -55 0.8
w 56 0.2
w -56 0.8
w 57 0.2
w -57 0.8
w 58 0.2
w -58 0.8
w 59 0.2
w -59 0.8
w 60 0.2
w -60 0.8
w 61 0.2
w -61 0.8
w 62 0.2
w -62 0.8
w 63 0.2
w -63 0.8
w 64 0.2
w -64 0.8
w 65 0.2
w -65 0.8
w 66 0.2
w -66 0.8
w 67 0.2
w -67 0.8
w 68 0.2
w -68 0.8
w 69 0.2
w -69 0.8
w 70 0.2
w -70 0.8
w 71 1
w -71 1
w 72 1
w -72 1
w 73 1
w -73 1
w 74 1
w -74 1
w 75 1
w -75 1
w 76 1
w -76 1
w 77 1
w -77 1
w 78 1
w -78 1
w 79 1
w -79 1
w 80 1
w -80 1
w 81 1
w -81 1
w 82 1
w -82 1
w 83 1
w -83 1
w 84 1
w -84 1
w 85 1
w -85 1
w 86 1
w -86 1
w 87 1
w -87 1
w 88 1
w -88 1
w 89 1
w -89 1
w 90 1
w -90 1
w 91 1
w -91 1
w 92 1
w -92 1
w 93 1
w -93 1
w 94 1
w -94 1
w 95 1
w -95 1
w 96 1
w -96 1
w 97 1
w -97 1
w 98 1
w -98 1
w 99 1
w -99 1
w 100 1
w -100 1
w 101 1
w -101 1
w 102 1
w -102 1
w 103 1
w -103 1
w 104 1
w -104 1
w 105 1
w -105 1
w 106 1
w -106 1
w 107 1
w -107 1
w 108 1
w -108 1
w 109 1
w -109 1
w 110 1
w -110 1
w 111 1
w -111 1
w 112 1
w -112 1
w 113 1
w -113 1
w 114 1
w -114 1
w 115 1
w -115 1
w 116 1
w -116 1
w 117 1
w -117 1
w 118 1
w -118 1
w 119 1
w -119 1
w 120 1
w -120 1
w 121 1
w -121 1
w 122 1
w -122 1
w 123 1
w -123 1
w 124 1
w -124 1
w 125 1
w -125 1
w 126 1
w -126 1
w 127 1
w -127 1
w 128 1
w -128 1
w 129 1
w -129 1
w 130 1
w -130 1
w 131 1
w -131 1
w 132 1
w -132 1
w 133 1
w -133 1
w 134 1
w -134 1
w 135 1
w -135 1
w 136 1
w -136 1
w 137 1
w -137 1
w 138 1
w -138 1
w 139 1
w -139 1
w 140 1
w -140 1
